[INPUT]
cvfile = ./angaver{}.xvg

[OUTPUT]
fenefile   = weight.fene
weightfile = weight{}.dat

[MBAR]
nreplica           = 44
input_type         = CV
dimension          = 1
nblocks            = 1
temperature        = 300
target_temperature = 300
rest_function1     = 1

[RESTRAINTS]
constant1 = 0.00364 0.00364 0.00364 0.00728 0.00728 0.00728 0.00728 0.00728 0.00728 0.00728 0.00728 0.00728 0.00728 0.00728 0.00728 0.00728 0.00728 0.00728 0.00364 0.00364 0.00364 0.00364 0.00364 0.00364 0.00364 0.00364 0.00364 0.00728 0.00728 0.00728 0.00728 0.00728 0.00728 0.00728 0.00728 0.00728 0.00728 0.00728 0.00728 0.00728 0.00728 0.00364 0.00364 0.00364
reference1 = -180 -150 -130 -125 -120 -115 -110 -105 -100 -95 -90 -85 -80 -75 -70 -65 -60 -50 -40 -30 -20 -10 0 10 20 30 40 50 60 65 70 75 80 85 90 95 100 105 110 115 120 125 130 150


is_periodic1 = YES
box_size1 = 360
